logs/drand/ip/drand-07-075-1.lp
\ LP format - for model browsing. Use MPS format to capture full model detail.
Minimize
  z0 + z1 + z2 + z3 + z4 + z5 + z6 + z7
Subject To
 R0: x0,1_4 + x0,1_12 + x0,1_44 + x0,1_50 + x0,1_55 + x0,1_57 + x0,1_70
   - z1 <= 0
 R1: x0,2_4 + x0,2_12 + x0,2_44 + x0,2_50 + x0,2_55 + x0,2_57 + x0,2_70
   - z2 <= 0
 R2: x0,3_4 + x0,3_12 + x0,3_44 + x0,3_50 + x0,3_55 + x0,3_57 + x0,3_70
   - z3 <= 0
 R3: x0,4_4 + x0,4_12 + x0,4_44 + x0,4_50 + x0,4_55 + x0,4_57 + x0,4_70
   - z4 <= 0
 R4: x0,5_4 + x0,5_12 + x0,5_44 + x0,5_50 + x0,5_55 + x0,5_57 + x0,5_70
   - z5 <= 0
 R5: x0,6_4 + x0,6_12 + x0,6_44 + x0,6_50 + x0,6_55 + x0,6_57 + x0,6_70
   - z6 <= 0
 R6: x0,7_4 + x0,7_12 + x0,7_44 + x0,7_50 + x0,7_55 + x0,7_57 + x0,7_70
   - z7 <= 0
 R7: x1,2_4 + x1,2_12 + x1,2_44 + x1,2_50 + x1,2_55 + x1,2_57 + x1,2_70
   - z2 <= 0
 R8: x1,3_4 + x1,3_12 + x1,3_44 + x1,3_50 + x1,3_55 + x1,3_57 + x1,3_70
   - z3 <= 0
 R9: x1,4_4 + x1,4_12 + x1,4_44 + x1,4_50 + x1,4_55 + x1,4_57 + x1,4_70
   - z4 <= 0
 R10: x1,5_4 + x1,5_12 + x1,5_44 + x1,5_50 + x1,5_55 + x1,5_57 + x1,5_70
   - z5 <= 0
 R11: x1,6_4 + x1,6_12 + x1,6_44 + x1,6_50 + x1,6_55 + x1,6_57 + x1,6_70
   - z6 <= 0
 R12: x1,7_4 + x1,7_12 + x1,7_44 + x1,7_50 + x1,7_55 + x1,7_57 + x1,7_70
   - z7 <= 0
 R13: x2,3_4 + x2,3_12 + x2,3_44 + x2,3_50 + x2,3_55 + x2,3_57 + x2,3_70
   - z3 <= 0
 R14: x2,4_4 + x2,4_12 + x2,4_44 + x2,4_50 + x2,4_55 + x2,4_57 + x2,4_70
   - z4 <= 0
 R15: x2,5_4 + x2,5_12 + x2,5_44 + x2,5_50 + x2,5_55 + x2,5_57 + x2,5_70
   - z5 <= 0
 R16: x2,6_4 + x2,6_12 + x2,6_44 + x2,6_50 + x2,6_55 + x2,6_57 + x2,6_70
   - z6 <= 0
 R17: x2,7_4 + x2,7_12 + x2,7_44 + x2,7_50 + x2,7_55 + x2,7_57 + x2,7_70
   - z7 <= 0
 R18: x3,4_4 + x3,4_12 + x3,4_44 + x3,4_50 + x3,4_55 + x3,4_57 + x3,4_70
   - z4 <= 0
 R19: x3,5_4 + x3,5_12 + x3,5_44 + x3,5_50 + x3,5_55 + x3,5_57 + x3,5_70
   - z5 <= 0
 R20: x3,6_4 + x3,6_12 + x3,6_44 + x3,6_50 + x3,6_55 + x3,6_57 + x3,6_70
   - z6 <= 0
 R21: x3,7_4 + x3,7_12 + x3,7_44 + x3,7_50 + x3,7_55 + x3,7_57 + x3,7_70
   - z7 <= 0
 R22: x4,5_4 + x4,5_12 + x4,5_44 + x4,5_50 + x4,5_55 + x4,5_57 + x4,5_70
   - z5 <= 0
 R23: x4,6_4 + x4,6_12 + x4,6_44 + x4,6_50 + x4,6_55 + x4,6_57 + x4,6_70
   - z6 <= 0
 R24: x4,7_4 + x4,7_12 + x4,7_44 + x4,7_50 + x4,7_55 + x4,7_57 + x4,7_70
   - z7 <= 0
 R25: x5,6_4 + x5,6_12 + x5,6_44 + x5,6_50 + x5,6_55 + x5,6_57 + x5,6_70
   - z6 <= 0
 R26: x5,7_4 + x5,7_12 + x5,7_44 + x5,7_50 + x5,7_55 + x5,7_57 + x5,7_70
   - z7 <= 0
 R27: x6,7_4 + x6,7_12 + x6,7_44 + x6,7_50 + x6,7_55 + x6,7_57 + x6,7_70
   - z7 <= 0
 R28: x0,1_4 + x0,2_4 + x0,3_4 + x0,4_4 + x0,5_4 + x0,6_4 + x0,7_4 + x1,2_4
   + x1,3_4 + x1,4_4 + x1,5_4 + x1,6_4 + x1,7_4 + x2,3_4 + x2,4_4 + x2,5_4
   + x2,6_4 + x2,7_4 + x3,4_4 + x3,5_4 + x3,6_4 + x3,7_4 + x4,5_4 + x4,6_4
   + x4,7_4 + x5,6_4 + x5,7_4 + x6,7_4 = 1
 R29: x0,1_12 + x0,2_12 + x0,3_12 + x0,4_12 + x0,5_12 + x0,6_12 + x0,7_12
   + x1,2_12 + x1,3_12 + x1,4_12 + x1,5_12 + x1,6_12 + x1,7_12 + x2,3_12
   + x2,4_12 + x2,5_12 + x2,6_12 + x2,7_12 + x3,4_12 + x3,5_12 + x3,6_12
   + x3,7_12 + x4,5_12 + x4,6_12 + x4,7_12 + x5,6_12 + x5,7_12 + x6,7_12
   = 1
 R30: x0,1_44 + x0,2_44 + x0,3_44 + x0,4_44 + x0,5_44 + x0,6_44 + x0,7_44
   + x1,2_44 + x1,3_44 + x1,4_44 + x1,5_44 + x1,6_44 + x1,7_44 + x2,3_44
   + x2,4_44 + x2,5_44 + x2,6_44 + x2,7_44 + x3,4_44 + x3,5_44 + x3,6_44
   + x3,7_44 + x4,5_44 + x4,6_44 + x4,7_44 + x5,6_44 + x5,7_44 + x6,7_44
   = 1
 R31: x0,1_50 + x0,2_50 + x0,3_50 + x0,4_50 + x0,5_50 + x0,6_50 + x0,7_50
   + x1,2_50 + x1,3_50 + x1,4_50 + x1,5_50 + x1,6_50 + x1,7_50 + x2,3_50
   + x2,4_50 + x2,5_50 + x2,6_50 + x2,7_50 + x3,4_50 + x3,5_50 + x3,6_50
   + x3,7_50 + x4,5_50 + x4,6_50 + x4,7_50 + x5,6_50 + x5,7_50 + x6,7_50
   = 1
 R32: x0,1_55 + x0,2_55 + x0,3_55 + x0,4_55 + x0,5_55 + x0,6_55 + x0,7_55
   + x1,2_55 + x1,3_55 + x1,4_55 + x1,5_55 + x1,6_55 + x1,7_55 + x2,3_55
   + x2,4_55 + x2,5_55 + x2,6_55 + x2,7_55 + x3,4_55 + x3,5_55 + x3,6_55
   + x3,7_55 + x4,5_55 + x4,6_55 + x4,7_55 + x5,6_55 + x5,7_55 + x6,7_55
   = 1
 R33: x0,1_57 + x0,2_57 + x0,3_57 + x0,4_57 + x0,5_57 + x0,6_57 + x0,7_57
   + x1,2_57 + x1,3_57 + x1,4_57 + x1,5_57 + x1,6_57 + x1,7_57 + x2,3_57
   + x2,4_57 + x2,5_57 + x2,6_57 + x2,7_57 + x3,4_57 + x3,5_57 + x3,6_57
   + x3,7_57 + x4,5_57 + x4,6_57 + x4,7_57 + x5,6_57 + x5,7_57 + x6,7_57
   = 1
 R34: x0,1_70 + x0,2_70 + x0,3_70 + x0,4_70 + x0,5_70 + x0,6_70 + x0,7_70
   + x1,2_70 + x1,3_70 + x1,4_70 + x1,5_70 + x1,6_70 + x1,7_70 + x2,3_70
   + x2,4_70 + x2,5_70 + x2,6_70 + x2,7_70 + x3,4_70 + x3,5_70 + x3,6_70
   + x3,7_70 + x4,5_70 + x4,6_70 + x4,7_70 + x5,6_70 + x5,7_70 + x6,7_70
   = 1
 R35: p0 - p1 <= -1
 R36: - 4 x0,1_4 - p0 + p1 >= 0
 R37: 292 x0,1_4 - p0 + p1 <= 296
 R38: - 12 x0,1_12 - p0 + p1 >= 0
 R39: 292 x0,1_12 - p0 + p1 <= 304
 R40: - 44 x0,1_44 - p0 + p1 >= 0
 R41: 292 x0,1_44 - p0 + p1 <= 336
 R42: - 50 x0,1_50 - p0 + p1 >= 0
 R43: 292 x0,1_50 - p0 + p1 <= 342
 R44: - 55 x0,1_55 - p0 + p1 >= 0
 R45: 292 x0,1_55 - p0 + p1 <= 347
 R46: - 57 x0,1_57 - p0 + p1 >= 0
 R47: 292 x0,1_57 - p0 + p1 <= 349
 R48: - 70 x0,1_70 - p0 + p1 >= 0
 R49: 292 x0,1_70 - p0 + p1 <= 362
 R50: p0 - p2 <= -1
 R51: - 4 x0,2_4 - p0 + p2 >= 0
 R52: 292 x0,2_4 - p0 + p2 <= 296
 R53: - 12 x0,2_12 - p0 + p2 >= 0
 R54: 292 x0,2_12 - p0 + p2 <= 304
 R55: - 44 x0,2_44 - p0 + p2 >= 0
 R56: 292 x0,2_44 - p0 + p2 <= 336
 R57: - 50 x0,2_50 - p0 + p2 >= 0
 R58: 292 x0,2_50 - p0 + p2 <= 342
 R59: - 55 x0,2_55 - p0 + p2 >= 0
 R60: 292 x0,2_55 - p0 + p2 <= 347
 R61: - 57 x0,2_57 - p0 + p2 >= 0
 R62: 292 x0,2_57 - p0 + p2 <= 349
 R63: - 70 x0,2_70 - p0 + p2 >= 0
 R64: 292 x0,2_70 - p0 + p2 <= 362
 R65: p0 - p3 <= -1
 R66: - 4 x0,3_4 - p0 + p3 >= 0
 R67: 292 x0,3_4 - p0 + p3 <= 296
 R68: - 12 x0,3_12 - p0 + p3 >= 0
 R69: 292 x0,3_12 - p0 + p3 <= 304
 R70: - 44 x0,3_44 - p0 + p3 >= 0
 R71: 292 x0,3_44 - p0 + p3 <= 336
 R72: - 50 x0,3_50 - p0 + p3 >= 0
 R73: 292 x0,3_50 - p0 + p3 <= 342
 R74: - 55 x0,3_55 - p0 + p3 >= 0
 R75: 292 x0,3_55 - p0 + p3 <= 347
 R76: - 57 x0,3_57 - p0 + p3 >= 0
 R77: 292 x0,3_57 - p0 + p3 <= 349
 R78: - 70 x0,3_70 - p0 + p3 >= 0
 R79: 292 x0,3_70 - p0 + p3 <= 362
 R80: p0 - p4 <= -1
 R81: - 4 x0,4_4 - p0 + p4 >= 0
 R82: 292 x0,4_4 - p0 + p4 <= 296
 R83: - 12 x0,4_12 - p0 + p4 >= 0
 R84: 292 x0,4_12 - p0 + p4 <= 304
 R85: - 44 x0,4_44 - p0 + p4 >= 0
 R86: 292 x0,4_44 - p0 + p4 <= 336
 R87: - 50 x0,4_50 - p0 + p4 >= 0
 R88: 292 x0,4_50 - p0 + p4 <= 342
 R89: - 55 x0,4_55 - p0 + p4 >= 0
 R90: 292 x0,4_55 - p0 + p4 <= 347
 R91: - 57 x0,4_57 - p0 + p4 >= 0
 R92: 292 x0,4_57 - p0 + p4 <= 349
 R93: - 70 x0,4_70 - p0 + p4 >= 0
 R94: 292 x0,4_70 - p0 + p4 <= 362
 R95: p0 - p5 <= -1
 R96: - 4 x0,5_4 - p0 + p5 >= 0
 R97: 292 x0,5_4 - p0 + p5 <= 296
 R98: - 12 x0,5_12 - p0 + p5 >= 0
 R99: 292 x0,5_12 - p0 + p5 <= 304
 R100: - 44 x0,5_44 - p0 + p5 >= 0
 R101: 292 x0,5_44 - p0 + p5 <= 336
 R102: - 50 x0,5_50 - p0 + p5 >= 0
 R103: 292 x0,5_50 - p0 + p5 <= 342
 R104: - 55 x0,5_55 - p0 + p5 >= 0
 R105: 292 x0,5_55 - p0 + p5 <= 347
 R106: - 57 x0,5_57 - p0 + p5 >= 0
 R107: 292 x0,5_57 - p0 + p5 <= 349
 R108: - 70 x0,5_70 - p0 + p5 >= 0
 R109: 292 x0,5_70 - p0 + p5 <= 362
 R110: p0 - p6 <= -1
 R111: - 4 x0,6_4 - p0 + p6 >= 0
 R112: 292 x0,6_4 - p0 + p6 <= 296
 R113: - 12 x0,6_12 - p0 + p6 >= 0
 R114: 292 x0,6_12 - p0 + p6 <= 304
 R115: - 44 x0,6_44 - p0 + p6 >= 0
 R116: 292 x0,6_44 - p0 + p6 <= 336
 R117: - 50 x0,6_50 - p0 + p6 >= 0
 R118: 292 x0,6_50 - p0 + p6 <= 342
 R119: - 55 x0,6_55 - p0 + p6 >= 0
 R120: 292 x0,6_55 - p0 + p6 <= 347
 R121: - 57 x0,6_57 - p0 + p6 >= 0
 R122: 292 x0,6_57 - p0 + p6 <= 349
 R123: - 70 x0,6_70 - p0 + p6 >= 0
 R124: 292 x0,6_70 - p0 + p6 <= 362
 R125: p0 - p7 <= -1
 R126: - 4 x0,7_4 - p0 + p7 >= 0
 R127: 292 x0,7_4 - p0 + p7 <= 296
 R128: - 12 x0,7_12 - p0 + p7 >= 0
 R129: 292 x0,7_12 - p0 + p7 <= 304
 R130: - 44 x0,7_44 - p0 + p7 >= 0
 R131: 292 x0,7_44 - p0 + p7 <= 336
 R132: - 50 x0,7_50 - p0 + p7 >= 0
 R133: 292 x0,7_50 - p0 + p7 <= 342
 R134: - 55 x0,7_55 - p0 + p7 >= 0
 R135: 292 x0,7_55 - p0 + p7 <= 347
 R136: - 57 x0,7_57 - p0 + p7 >= 0
 R137: 292 x0,7_57 - p0 + p7 <= 349
 R138: - 70 x0,7_70 - p0 + p7 >= 0
 R139: 292 x0,7_70 - p0 + p7 <= 362
 R140: p1 - p2 <= -1
 R141: - 4 x1,2_4 - p1 + p2 >= 0
 R142: 292 x1,2_4 - p1 + p2 <= 296
 R143: - 12 x1,2_12 - p1 + p2 >= 0
 R144: 292 x1,2_12 - p1 + p2 <= 304
 R145: - 44 x1,2_44 - p1 + p2 >= 0
 R146: 292 x1,2_44 - p1 + p2 <= 336
 R147: - 50 x1,2_50 - p1 + p2 >= 0
 R148: 292 x1,2_50 - p1 + p2 <= 342
 R149: - 55 x1,2_55 - p1 + p2 >= 0
 R150: 292 x1,2_55 - p1 + p2 <= 347
 R151: - 57 x1,2_57 - p1 + p2 >= 0
 R152: 292 x1,2_57 - p1 + p2 <= 349
 R153: - 70 x1,2_70 - p1 + p2 >= 0
 R154: 292 x1,2_70 - p1 + p2 <= 362
 R155: p1 - p3 <= -1
 R156: - 4 x1,3_4 - p1 + p3 >= 0
 R157: 292 x1,3_4 - p1 + p3 <= 296
 R158: - 12 x1,3_12 - p1 + p3 >= 0
 R159: 292 x1,3_12 - p1 + p3 <= 304
 R160: - 44 x1,3_44 - p1 + p3 >= 0
 R161: 292 x1,3_44 - p1 + p3 <= 336
 R162: - 50 x1,3_50 - p1 + p3 >= 0
 R163: 292 x1,3_50 - p1 + p3 <= 342
 R164: - 55 x1,3_55 - p1 + p3 >= 0
 R165: 292 x1,3_55 - p1 + p3 <= 347
 R166: - 57 x1,3_57 - p1 + p3 >= 0
 R167: 292 x1,3_57 - p1 + p3 <= 349
 R168: - 70 x1,3_70 - p1 + p3 >= 0
 R169: 292 x1,3_70 - p1 + p3 <= 362
 R170: p1 - p4 <= -1
 R171: - 4 x1,4_4 - p1 + p4 >= 0
 R172: 292 x1,4_4 - p1 + p4 <= 296
 R173: - 12 x1,4_12 - p1 + p4 >= 0
 R174: 292 x1,4_12 - p1 + p4 <= 304
 R175: - 44 x1,4_44 - p1 + p4 >= 0
 R176: 292 x1,4_44 - p1 + p4 <= 336
 R177: - 50 x1,4_50 - p1 + p4 >= 0
 R178: 292 x1,4_50 - p1 + p4 <= 342
 R179: - 55 x1,4_55 - p1 + p4 >= 0
 R180: 292 x1,4_55 - p1 + p4 <= 347
 R181: - 57 x1,4_57 - p1 + p4 >= 0
 R182: 292 x1,4_57 - p1 + p4 <= 349
 R183: - 70 x1,4_70 - p1 + p4 >= 0
 R184: 292 x1,4_70 - p1 + p4 <= 362
 R185: p1 - p5 <= -1
 R186: - 4 x1,5_4 - p1 + p5 >= 0
 R187: 292 x1,5_4 - p1 + p5 <= 296
 R188: - 12 x1,5_12 - p1 + p5 >= 0
 R189: 292 x1,5_12 - p1 + p5 <= 304
 R190: - 44 x1,5_44 - p1 + p5 >= 0
 R191: 292 x1,5_44 - p1 + p5 <= 336
 R192: - 50 x1,5_50 - p1 + p5 >= 0
 R193: 292 x1,5_50 - p1 + p5 <= 342
 R194: - 55 x1,5_55 - p1 + p5 >= 0
 R195: 292 x1,5_55 - p1 + p5 <= 347
 R196: - 57 x1,5_57 - p1 + p5 >= 0
 R197: 292 x1,5_57 - p1 + p5 <= 349
 R198: - 70 x1,5_70 - p1 + p5 >= 0
 R199: 292 x1,5_70 - p1 + p5 <= 362
 R200: p1 - p6 <= -1
 R201: - 4 x1,6_4 - p1 + p6 >= 0
 R202: 292 x1,6_4 - p1 + p6 <= 296
 R203: - 12 x1,6_12 - p1 + p6 >= 0
 R204: 292 x1,6_12 - p1 + p6 <= 304
 R205: - 44 x1,6_44 - p1 + p6 >= 0
 R206: 292 x1,6_44 - p1 + p6 <= 336
 R207: - 50 x1,6_50 - p1 + p6 >= 0
 R208: 292 x1,6_50 - p1 + p6 <= 342
 R209: - 55 x1,6_55 - p1 + p6 >= 0
 R210: 292 x1,6_55 - p1 + p6 <= 347
 R211: - 57 x1,6_57 - p1 + p6 >= 0
 R212: 292 x1,6_57 - p1 + p6 <= 349
 R213: - 70 x1,6_70 - p1 + p6 >= 0
 R214: 292 x1,6_70 - p1 + p6 <= 362
 R215: p1 - p7 <= -1
 R216: - 4 x1,7_4 - p1 + p7 >= 0
 R217: 292 x1,7_4 - p1 + p7 <= 296
 R218: - 12 x1,7_12 - p1 + p7 >= 0
 R219: 292 x1,7_12 - p1 + p7 <= 304
 R220: - 44 x1,7_44 - p1 + p7 >= 0
 R221: 292 x1,7_44 - p1 + p7 <= 336
 R222: - 50 x1,7_50 - p1 + p7 >= 0
 R223: 292 x1,7_50 - p1 + p7 <= 342
 R224: - 55 x1,7_55 - p1 + p7 >= 0
 R225: 292 x1,7_55 - p1 + p7 <= 347
 R226: - 57 x1,7_57 - p1 + p7 >= 0
 R227: 292 x1,7_57 - p1 + p7 <= 349
 R228: - 70 x1,7_70 - p1 + p7 >= 0
 R229: 292 x1,7_70 - p1 + p7 <= 362
 R230: p2 - p3 <= -1
 R231: - 4 x2,3_4 - p2 + p3 >= 0
 R232: 292 x2,3_4 - p2 + p3 <= 296
 R233: - 12 x2,3_12 - p2 + p3 >= 0
 R234: 292 x2,3_12 - p2 + p3 <= 304
 R235: - 44 x2,3_44 - p2 + p3 >= 0
 R236: 292 x2,3_44 - p2 + p3 <= 336
 R237: - 50 x2,3_50 - p2 + p3 >= 0
 R238: 292 x2,3_50 - p2 + p3 <= 342
 R239: - 55 x2,3_55 - p2 + p3 >= 0
 R240: 292 x2,3_55 - p2 + p3 <= 347
 R241: - 57 x2,3_57 - p2 + p3 >= 0
 R242: 292 x2,3_57 - p2 + p3 <= 349
 R243: - 70 x2,3_70 - p2 + p3 >= 0
 R244: 292 x2,3_70 - p2 + p3 <= 362
 R245: p2 - p4 <= -1
 R246: - 4 x2,4_4 - p2 + p4 >= 0
 R247: 292 x2,4_4 - p2 + p4 <= 296
 R248: - 12 x2,4_12 - p2 + p4 >= 0
 R249: 292 x2,4_12 - p2 + p4 <= 304
 R250: - 44 x2,4_44 - p2 + p4 >= 0
 R251: 292 x2,4_44 - p2 + p4 <= 336
 R252: - 50 x2,4_50 - p2 + p4 >= 0
 R253: 292 x2,4_50 - p2 + p4 <= 342
 R254: - 55 x2,4_55 - p2 + p4 >= 0
 R255: 292 x2,4_55 - p2 + p4 <= 347
 R256: - 57 x2,4_57 - p2 + p4 >= 0
 R257: 292 x2,4_57 - p2 + p4 <= 349
 R258: - 70 x2,4_70 - p2 + p4 >= 0
 R259: 292 x2,4_70 - p2 + p4 <= 362
 R260: p2 - p5 <= -1
 R261: - 4 x2,5_4 - p2 + p5 >= 0
 R262: 292 x2,5_4 - p2 + p5 <= 296
 R263: - 12 x2,5_12 - p2 + p5 >= 0
 R264: 292 x2,5_12 - p2 + p5 <= 304
 R265: - 44 x2,5_44 - p2 + p5 >= 0
 R266: 292 x2,5_44 - p2 + p5 <= 336
 R267: - 50 x2,5_50 - p2 + p5 >= 0
 R268: 292 x2,5_50 - p2 + p5 <= 342
 R269: - 55 x2,5_55 - p2 + p5 >= 0
 R270: 292 x2,5_55 - p2 + p5 <= 347
 R271: - 57 x2,5_57 - p2 + p5 >= 0
 R272: 292 x2,5_57 - p2 + p5 <= 349
 R273: - 70 x2,5_70 - p2 + p5 >= 0
 R274: 292 x2,5_70 - p2 + p5 <= 362
 R275: p2 - p6 <= -1
 R276: - 4 x2,6_4 - p2 + p6 >= 0
 R277: 292 x2,6_4 - p2 + p6 <= 296
 R278: - 12 x2,6_12 - p2 + p6 >= 0
 R279: 292 x2,6_12 - p2 + p6 <= 304
 R280: - 44 x2,6_44 - p2 + p6 >= 0
 R281: 292 x2,6_44 - p2 + p6 <= 336
 R282: - 50 x2,6_50 - p2 + p6 >= 0
 R283: 292 x2,6_50 - p2 + p6 <= 342
 R284: - 55 x2,6_55 - p2 + p6 >= 0
 R285: 292 x2,6_55 - p2 + p6 <= 347
 R286: - 57 x2,6_57 - p2 + p6 >= 0
 R287: 292 x2,6_57 - p2 + p6 <= 349
 R288: - 70 x2,6_70 - p2 + p6 >= 0
 R289: 292 x2,6_70 - p2 + p6 <= 362
 R290: p2 - p7 <= -1
 R291: - 4 x2,7_4 - p2 + p7 >= 0
 R292: 292 x2,7_4 - p2 + p7 <= 296
 R293: - 12 x2,7_12 - p2 + p7 >= 0
 R294: 292 x2,7_12 - p2 + p7 <= 304
 R295: - 44 x2,7_44 - p2 + p7 >= 0
 R296: 292 x2,7_44 - p2 + p7 <= 336
 R297: - 50 x2,7_50 - p2 + p7 >= 0
 R298: 292 x2,7_50 - p2 + p7 <= 342
 R299: - 55 x2,7_55 - p2 + p7 >= 0
 R300: 292 x2,7_55 - p2 + p7 <= 347
 R301: - 57 x2,7_57 - p2 + p7 >= 0
 R302: 292 x2,7_57 - p2 + p7 <= 349
 R303: - 70 x2,7_70 - p2 + p7 >= 0
 R304: 292 x2,7_70 - p2 + p7 <= 362
 R305: p3 - p4 <= -1
 R306: - 4 x3,4_4 - p3 + p4 >= 0
 R307: 292 x3,4_4 - p3 + p4 <= 296
 R308: - 12 x3,4_12 - p3 + p4 >= 0
 R309: 292 x3,4_12 - p3 + p4 <= 304
 R310: - 44 x3,4_44 - p3 + p4 >= 0
 R311: 292 x3,4_44 - p3 + p4 <= 336
 R312: - 50 x3,4_50 - p3 + p4 >= 0
 R313: 292 x3,4_50 - p3 + p4 <= 342
 R314: - 55 x3,4_55 - p3 + p4 >= 0
 R315: 292 x3,4_55 - p3 + p4 <= 347
 R316: - 57 x3,4_57 - p3 + p4 >= 0
 R317: 292 x3,4_57 - p3 + p4 <= 349
 R318: - 70 x3,4_70 - p3 + p4 >= 0
 R319: 292 x3,4_70 - p3 + p4 <= 362
 R320: p3 - p5 <= -1
 R321: - 4 x3,5_4 - p3 + p5 >= 0
 R322: 292 x3,5_4 - p3 + p5 <= 296
 R323: - 12 x3,5_12 - p3 + p5 >= 0
 R324: 292 x3,5_12 - p3 + p5 <= 304
 R325: - 44 x3,5_44 - p3 + p5 >= 0
 R326: 292 x3,5_44 - p3 + p5 <= 336
 R327: - 50 x3,5_50 - p3 + p5 >= 0
 R328: 292 x3,5_50 - p3 + p5 <= 342
 R329: - 55 x3,5_55 - p3 + p5 >= 0
 R330: 292 x3,5_55 - p3 + p5 <= 347
 R331: - 57 x3,5_57 - p3 + p5 >= 0
 R332: 292 x3,5_57 - p3 + p5 <= 349
 R333: - 70 x3,5_70 - p3 + p5 >= 0
 R334: 292 x3,5_70 - p3 + p5 <= 362
 R335: p3 - p6 <= -1
 R336: - 4 x3,6_4 - p3 + p6 >= 0
 R337: 292 x3,6_4 - p3 + p6 <= 296
 R338: - 12 x3,6_12 - p3 + p6 >= 0
 R339: 292 x3,6_12 - p3 + p6 <= 304
 R340: - 44 x3,6_44 - p3 + p6 >= 0
 R341: 292 x3,6_44 - p3 + p6 <= 336
 R342: - 50 x3,6_50 - p3 + p6 >= 0
 R343: 292 x3,6_50 - p3 + p6 <= 342
 R344: - 55 x3,6_55 - p3 + p6 >= 0
 R345: 292 x3,6_55 - p3 + p6 <= 347
 R346: - 57 x3,6_57 - p3 + p6 >= 0
 R347: 292 x3,6_57 - p3 + p6 <= 349
 R348: - 70 x3,6_70 - p3 + p6 >= 0
 R349: 292 x3,6_70 - p3 + p6 <= 362
 R350: p3 - p7 <= -1
 R351: - 4 x3,7_4 - p3 + p7 >= 0
 R352: 292 x3,7_4 - p3 + p7 <= 296
 R353: - 12 x3,7_12 - p3 + p7 >= 0
 R354: 292 x3,7_12 - p3 + p7 <= 304
 R355: - 44 x3,7_44 - p3 + p7 >= 0
 R356: 292 x3,7_44 - p3 + p7 <= 336
 R357: - 50 x3,7_50 - p3 + p7 >= 0
 R358: 292 x3,7_50 - p3 + p7 <= 342
 R359: - 55 x3,7_55 - p3 + p7 >= 0
 R360: 292 x3,7_55 - p3 + p7 <= 347
 R361: - 57 x3,7_57 - p3 + p7 >= 0
 R362: 292 x3,7_57 - p3 + p7 <= 349
 R363: - 70 x3,7_70 - p3 + p7 >= 0
 R364: 292 x3,7_70 - p3 + p7 <= 362
 R365: p4 - p5 <= -1
 R366: - 4 x4,5_4 - p4 + p5 >= 0
 R367: 292 x4,5_4 - p4 + p5 <= 296
 R368: - 12 x4,5_12 - p4 + p5 >= 0
 R369: 292 x4,5_12 - p4 + p5 <= 304
 R370: - 44 x4,5_44 - p4 + p5 >= 0
 R371: 292 x4,5_44 - p4 + p5 <= 336
 R372: - 50 x4,5_50 - p4 + p5 >= 0
 R373: 292 x4,5_50 - p4 + p5 <= 342
 R374: - 55 x4,5_55 - p4 + p5 >= 0
 R375: 292 x4,5_55 - p4 + p5 <= 347
 R376: - 57 x4,5_57 - p4 + p5 >= 0
 R377: 292 x4,5_57 - p4 + p5 <= 349
 R378: - 70 x4,5_70 - p4 + p5 >= 0
 R379: 292 x4,5_70 - p4 + p5 <= 362
 R380: p4 - p6 <= -1
 R381: - 4 x4,6_4 - p4 + p6 >= 0
 R382: 292 x4,6_4 - p4 + p6 <= 296
 R383: - 12 x4,6_12 - p4 + p6 >= 0
 R384: 292 x4,6_12 - p4 + p6 <= 304
 R385: - 44 x4,6_44 - p4 + p6 >= 0
 R386: 292 x4,6_44 - p4 + p6 <= 336
 R387: - 50 x4,6_50 - p4 + p6 >= 0
 R388: 292 x4,6_50 - p4 + p6 <= 342
 R389: - 55 x4,6_55 - p4 + p6 >= 0
 R390: 292 x4,6_55 - p4 + p6 <= 347
 R391: - 57 x4,6_57 - p4 + p6 >= 0
 R392: 292 x4,6_57 - p4 + p6 <= 349
 R393: - 70 x4,6_70 - p4 + p6 >= 0
 R394: 292 x4,6_70 - p4 + p6 <= 362
 R395: p4 - p7 <= -1
 R396: - 4 x4,7_4 - p4 + p7 >= 0
 R397: 292 x4,7_4 - p4 + p7 <= 296
 R398: - 12 x4,7_12 - p4 + p7 >= 0
 R399: 292 x4,7_12 - p4 + p7 <= 304
 R400: - 44 x4,7_44 - p4 + p7 >= 0
 R401: 292 x4,7_44 - p4 + p7 <= 336
 R402: - 50 x4,7_50 - p4 + p7 >= 0
 R403: 292 x4,7_50 - p4 + p7 <= 342
 R404: - 55 x4,7_55 - p4 + p7 >= 0
 R405: 292 x4,7_55 - p4 + p7 <= 347
 R406: - 57 x4,7_57 - p4 + p7 >= 0
 R407: 292 x4,7_57 - p4 + p7 <= 349
 R408: - 70 x4,7_70 - p4 + p7 >= 0
 R409: 292 x4,7_70 - p4 + p7 <= 362
 R410: p5 - p6 <= -1
 R411: - 4 x5,6_4 - p5 + p6 >= 0
 R412: 292 x5,6_4 - p5 + p6 <= 296
 R413: - 12 x5,6_12 - p5 + p6 >= 0
 R414: 292 x5,6_12 - p5 + p6 <= 304
 R415: - 44 x5,6_44 - p5 + p6 >= 0
 R416: 292 x5,6_44 - p5 + p6 <= 336
 R417: - 50 x5,6_50 - p5 + p6 >= 0
 R418: 292 x5,6_50 - p5 + p6 <= 342
 R419: - 55 x5,6_55 - p5 + p6 >= 0
 R420: 292 x5,6_55 - p5 + p6 <= 347
 R421: - 57 x5,6_57 - p5 + p6 >= 0
 R422: 292 x5,6_57 - p5 + p6 <= 349
 R423: - 70 x5,6_70 - p5 + p6 >= 0
 R424: 292 x5,6_70 - p5 + p6 <= 362
 R425: p5 - p7 <= -1
 R426: - 4 x5,7_4 - p5 + p7 >= 0
 R427: 292 x5,7_4 - p5 + p7 <= 296
 R428: - 12 x5,7_12 - p5 + p7 >= 0
 R429: 292 x5,7_12 - p5 + p7 <= 304
 R430: - 44 x5,7_44 - p5 + p7 >= 0
 R431: 292 x5,7_44 - p5 + p7 <= 336
 R432: - 50 x5,7_50 - p5 + p7 >= 0
 R433: 292 x5,7_50 - p5 + p7 <= 342
 R434: - 55 x5,7_55 - p5 + p7 >= 0
 R435: 292 x5,7_55 - p5 + p7 <= 347
 R436: - 57 x5,7_57 - p5 + p7 >= 0
 R437: 292 x5,7_57 - p5 + p7 <= 349
 R438: - 70 x5,7_70 - p5 + p7 >= 0
 R439: 292 x5,7_70 - p5 + p7 <= 362
 R440: p6 - p7 <= -1
 R441: - 4 x6,7_4 - p6 + p7 >= 0
 R442: 292 x6,7_4 - p6 + p7 <= 296
 R443: - 12 x6,7_12 - p6 + p7 >= 0
 R444: 292 x6,7_12 - p6 + p7 <= 304
 R445: - 44 x6,7_44 - p6 + p7 >= 0
 R446: 292 x6,7_44 - p6 + p7 <= 336
 R447: - 50 x6,7_50 - p6 + p7 >= 0
 R448: 292 x6,7_50 - p6 + p7 <= 342
 R449: - 55 x6,7_55 - p6 + p7 >= 0
 R450: 292 x6,7_55 - p6 + p7 <= 347
 R451: - 57 x6,7_57 - p6 + p7 >= 0
 R452: 292 x6,7_57 - p6 + p7 <= 349
 R453: - 70 x6,7_70 - p6 + p7 >= 0
 R454: 292 x6,7_70 - p6 + p7 <= 362
 R455: z0 - z1 >= 0
 R456: z1 - z2 >= 0
 R457: z2 - z3 >= 0
 R458: z3 - z4 >= 0
 R459: z4 - z5 >= 0
 R460: z5 - z6 >= 0
 R461: z6 - z7 >= 0
Bounds
Binaries
 x0,1_4 x0,1_12 x0,1_44 x0,1_50 x0,1_55 x0,1_57 x0,1_70 x0,2_4 x0,2_12
 x0,2_44 x0,2_50 x0,2_55 x0,2_57 x0,2_70 x0,3_4 x0,3_12 x0,3_44 x0,3_50
 x0,3_55 x0,3_57 x0,3_70 x0,4_4 x0,4_12 x0,4_44 x0,4_50 x0,4_55 x0,4_57
 x0,4_70 x0,5_4 x0,5_12 x0,5_44 x0,5_50 x0,5_55 x0,5_57 x0,5_70 x0,6_4
 x0,6_12 x0,6_44 x0,6_50 x0,6_55 x0,6_57 x0,6_70 x0,7_4 x0,7_12 x0,7_44
 x0,7_50 x0,7_55 x0,7_57 x0,7_70 x1,2_4 x1,2_12 x1,2_44 x1,2_50 x1,2_55
 x1,2_57 x1,2_70 x1,3_4 x1,3_12 x1,3_44 x1,3_50 x1,3_55 x1,3_57 x1,3_70
 x1,4_4 x1,4_12 x1,4_44 x1,4_50 x1,4_55 x1,4_57 x1,4_70 x1,5_4 x1,5_12
 x1,5_44 x1,5_50 x1,5_55 x1,5_57 x1,5_70 x1,6_4 x1,6_12 x1,6_44 x1,6_50
 x1,6_55 x1,6_57 x1,6_70 x1,7_4 x1,7_12 x1,7_44 x1,7_50 x1,7_55 x1,7_57
 x1,7_70 x2,3_4 x2,3_12 x2,3_44 x2,3_50 x2,3_55 x2,3_57 x2,3_70 x2,4_4
 x2,4_12 x2,4_44 x2,4_50 x2,4_55 x2,4_57 x2,4_70 x2,5_4 x2,5_12 x2,5_44
 x2,5_50 x2,5_55 x2,5_57 x2,5_70 x2,6_4 x2,6_12 x2,6_44 x2,6_50 x2,6_55
 x2,6_57 x2,6_70 x2,7_4 x2,7_12 x2,7_44 x2,7_50 x2,7_55 x2,7_57 x2,7_70
 x3,4_4 x3,4_12 x3,4_44 x3,4_50 x3,4_55 x3,4_57 x3,4_70 x3,5_4 x3,5_12
 x3,5_44 x3,5_50 x3,5_55 x3,5_57 x3,5_70 x3,6_4 x3,6_12 x3,6_44 x3,6_50
 x3,6_55 x3,6_57 x3,6_70 x3,7_4 x3,7_12 x3,7_44 x3,7_50 x3,7_55 x3,7_57
 x3,7_70 x4,5_4 x4,5_12 x4,5_44 x4,5_50 x4,5_55 x4,5_57 x4,5_70 x4,6_4
 x4,6_12 x4,6_44 x4,6_50 x4,6_55 x4,6_57 x4,6_70 x4,7_4 x4,7_12 x4,7_44
 x4,7_50 x4,7_55 x4,7_57 x4,7_70 x5,6_4 x5,6_12 x5,6_44 x5,6_50 x5,6_55
 x5,6_57 x5,6_70 x5,7_4 x5,7_12 x5,7_44 x5,7_50 x5,7_55 x5,7_57 x5,7_70
 x6,7_4 x6,7_12 x6,7_44 x6,7_50 x6,7_55 x6,7_57 x6,7_70 z0 z1 z2 z3 z4 z5
 z6 z7
Generals
 p0 p1 p2 p3 p4 p5 p6 p7
End
